(set-logic QF_UF)
(declare-fun A0 () Bool)
(declare-fun A2 () Bool)
(declare-fun A4 () Bool)
(declare-fun A5 () Bool)
(declare-fun A6 () Bool)
(declare-fun A7 () Bool)
(declare-fun A8 () Bool)
(declare-fun A9 () Bool)
(declare-fun A11 () Bool)
(declare-fun A12 () Bool)
(declare-fun A13 () Bool)
(declare-fun A14 () Bool)
(declare-fun A15 () Bool)
(declare-fun A16 () Bool)
(declare-fun A18 () Bool)
(declare-fun A19 () Bool)
(declare-fun A20 () Bool)
(declare-fun A21 () Bool)
(declare-fun A22 () Bool)
(declare-fun A24 () Bool)
(declare-fun A25 () Bool)
(declare-fun A26 () Bool)
(declare-fun A27 () Bool)
(declare-fun A28 () Bool)
(declare-fun A29 () Bool)
(assert (let ((.def_0 (not A12))) (let ((.def_1 (= A6 .def_0))) (let ((.def_2 (not A7))) (let ((.def_3 (not A5))) (let ((.def_4 (and .def_3 .def_2))) (let ((.def_5 (or .def_4 .def_1))) (let ((.def_6 (not .def_5))) (let ((.def_7 (or A20 A8))) (let ((.def_8 (or A11 A4))) (let ((.def_9 (not .def_8))) (let ((.def_10 (and .def_9 .def_7))) (let ((.def_11 (not .def_10))) (let ((.def_12 (and .def_11 .def_6))) (let ((.def_13 (not A20))) (let ((.def_14 (or A2 .def_13))) (let ((.def_15 (not .def_14))) (let ((.def_16 (or A28 A18))) (let ((.def_17 (or .def_16 .def_15))) (let ((.def_18 (not .def_17))) (let ((.def_19 (not A22))) (let ((.def_20 (and A0 .def_19))) (let ((.def_21 (not A27))) (let ((.def_22 (or .def_21 A5))) (let ((.def_23 (not .def_22))) (let ((.def_24 (or .def_23 .def_20))) (let ((.def_25 (not .def_24))) (let ((.def_26 (or .def_25 .def_18))) (let ((.def_27 (not .def_26))) (let ((.def_28 (and .def_27 .def_12))) (let ((.def_29 (and A20 .def_13))) (let ((.def_30 (not .def_29))) (let ((.def_31 (not A29))) (let ((.def_32 (not A9))) (let ((.def_33 (or .def_32 .def_31))) (let ((.def_34 (or .def_33 .def_30))) (let ((.def_35 (not .def_34))) (let ((.def_36 (and A16 A27))) (let ((.def_37 (or A5 A24))) (let ((.def_38 (and .def_37 .def_36))) (let ((.def_39 (not .def_38))) (let ((.def_40 (or .def_39 .def_35))) (let ((.def_41 (not .def_40))) (let ((.def_42 (not A24))) (let ((.def_43 (or .def_42 A7))) (let ((.def_44 (= A7 A21))) (let ((.def_45 (or .def_44 .def_43))) (let ((.def_46 (not A11))) (let ((.def_47 (or A27 .def_46))) (let ((.def_48 (or A16 A2))) (let ((.def_49 (= .def_48 .def_47))) (let ((.def_50 (not .def_49))) (let ((.def_51 (or .def_50 .def_45))) (let ((.def_52 (or .def_51 .def_41))) (let ((.def_53 (or .def_52 .def_28))) (let ((.def_54 (not A21))) (let ((.def_55 (not A28))) (let ((.def_56 (and .def_55 .def_54))) (let ((.def_57 (not .def_56))) (let ((.def_58 (not A14))) (let ((.def_59 (or A8 .def_58))) (let ((.def_60 (and .def_59 .def_57))) (let ((.def_61 (not .def_60))) (let ((.def_62 (and A19 A15))) (let ((.def_63 (not .def_62))) (let ((.def_64 (= .def_13 .def_58))) (let ((.def_65 (= .def_64 .def_63))) (let ((.def_66 (not .def_65))) (let ((.def_67 (or .def_66 .def_61))) (let ((.def_68 (not .def_67))) (let ((.def_69 (not A6))) (let ((.def_70 (or A28 .def_69))) (let ((.def_71 (= A21 .def_69))) (let ((.def_72 (or .def_71 .def_70))) (let ((.def_73 (or A5 A5))) (let ((.def_74 (and A9 A27))) (let ((.def_75 (and .def_74 .def_73))) (let ((.def_76 (and .def_75 .def_72))) (let ((.def_77 (not .def_76))) (let ((.def_78 (or .def_77 .def_68))) (let ((.def_79 (and A13 A7))) (let ((.def_80 (not .def_79))) (let ((.def_81 (not A16))) (let ((.def_82 (and .def_81 .def_58))) (let ((.def_83 (and .def_82 .def_80))) (let ((.def_84 (not .def_83))) (let ((.def_85 (not A0))) (let ((.def_86 (or .def_85 A25))) (let ((.def_87 (not .def_86))) (let ((.def_88 (= A29 .def_46))) (let ((.def_89 (and .def_88 .def_87))) (let ((.def_90 (and .def_89 .def_84))) (let ((.def_91 (and A12 A29))) (let ((.def_92 (not .def_91))) (let ((.def_93 (not A26))) (let ((.def_94 (not A19))) (let ((.def_95 (and .def_94 .def_93))) (let ((.def_96 (not .def_95))) (let ((.def_97 (and .def_96 .def_92))) (let ((.def_98 (= A22 A28))) (let ((.def_99 (or .def_98 .def_22))) (let ((.def_100 (not .def_99))) (let ((.def_101 (or .def_100 .def_97))) (let ((.def_102 (and .def_101 .def_90))) (let ((.def_103 (not .def_102))) (let ((.def_104 (or .def_103 .def_78))) (let ((.def_105 (or .def_104 .def_53))) (let ((.def_106 (not .def_105))) .def_106))))))))))))))))))))))))))))))))))))))))))))))))))))))))))))))))))))))))))))))))))))))))))))))))))))))))))))
(check-sat)
